Problem:    
Rows:       256
Columns:    89 (72 integer, 72 binary)
Non-zeros:  960
Status:     INTEGER OPTIMAL
Objective:  value = 56.331113 (MINimum)

   No.   Row name        Activity     Lower bound   Upper bound
------ ------------    ------------- ------------- -------------
     1 r.5                   1056.33             0               
     2 r.6                  -956.375      -990.402               
     3 r.7                   56.3311             0               
     4 r.8                  -980.929      -988.017               
     5 r.9                   1056.33             0               
     6 r.10                 -968.855      -989.673               
     7 r.11                  56.3311             0               
     8 r.12                  39.5467          -988               
     9 r.13                  56.3311             0               
    10 r.14                  36.6776      -984.048               
    11 r.15                  1056.33             0               
    12 r.16                 -963.322      -983.303               
    13 r.17                  56.3311             0               
    14 r.18                 -984.016      -991.103               
    15 r.19                  1056.33             0               
    16 r.20                  -980.02      -988.026               
    17 r.21                  1056.33             0               
    18 r.22                 -984.946      -992.034               
    19 r.23                  56.3311             0               
    20 r.24                  42.4158      -990.421               
    21 r.25                  1056.33             0               
    22 r.26                 -998.676      -998.676               
    23 r.27                  56.3311             0               
    24 r.28                  12.8258      -996.629               
    25 r.29                  56.3311             0               
    26 r.30                  56.3311      -978.109               
    27 r.31                  1056.33             0               
    28 r.32                 -943.669      -990.175               
    29 r.33                  56.3311             0               
    30 r.34                  56.3311      -977.682               
    31 r.35                  1056.33             0               
    32 r.36                 -953.493      -990.171               
    33 r.37                        1             1             = 
    34 r.38                        1             1             = 
    35 r.39                        1             1             = 
    36 r.40                        1             1             = 
    37 r.41                        1             1             = 
    38 r.42                        1             1             = 
    39 r.43                        1             1             = 
    40 r.44                        1             1             = 
    41 r.45                        2             2               
    42 r.46                       -2         -1001               
    43 r.47                 -15.3616      -989.673               
    44 r.48                     1000             2               
    45 r.49                    -1000         -1001               
    46 r.50                  3023.34          -988               
    47 r.51                     1001             2               
    48 r.52                    -1001         -1001               
    49 r.53                  1990.17      -984.048               
    50 r.54                     1001             2               
    51 r.55                    -1001         -1001               
    52 r.56                  3020.48      -983.303               
    53 r.57                     1001             2               
    54 r.58                    -1001         -1001               
    55 r.59                  969.478      -991.103               
    56 r.60                     1001             2               
    57 r.61                    -1001         -1001               
    58 r.62                  3003.78      -988.026               
    59 r.63                        2             2               
    60 r.64                       -2         -1001               
    61 r.65                 -31.4526      -992.034               
    62 r.66                     1000             2               
    63 r.67                    -1000         -1001               
    64 r.68                  3026.21      -990.421               
    65 r.69                 -963.463      -990.402               
    66 r.70                 -988.017      -988.017               
    67 r.71                 -963.463      -990.402               
    68 r.72                 -988.017      -988.017               
    69 r.73                   9.8246      -978.109               
    70 r.74                 -990.175      -990.175               
    71 r.75                  1040.13      -978.109               
    72 r.76                  40.1293      -990.175               
    73 r.77                     1001             2               
    74 r.78                    -1001         -1001               
    75 r.79                  2009.82      -977.682               
    76 r.80                     1001             2               
    77 r.81                    -1001         -1001               
    78 r.82                   3030.3      -990.171               
    79 r.83                        2             2               
    80 r.84                       -2         -1001               
    81 r.85                   9.5981        9.5981               
    82 r.86                     1000             2               
    83 r.87                    -1000         -1001               
    84 r.88                  982.393       11.9833               
    85 r.89                     1001             2               
    86 r.90                    -1001         -1001               
    87 r.91                  2002.65      -984.048               
    88 r.92                     1001             2               
    89 r.93                    -1001         -1001               
    90 r.94                     2000      -983.303               
    91 r.95                     1001             2               
    92 r.96                    -1001         -1001               
    93 r.97                  981.958      -991.103               
    94 r.98                     1001             2               
    95 r.99                    -1001         -1001               
    96 r.100                  1983.3      -988.026               
    97 r.101                       2             2               
    98 r.102                      -2         -1001               
    99 r.103                -18.9727      -992.034               
   100 r.104                    1000             2               
   101 r.105                   -1000         -1001               
   102 r.106                 2005.74      -990.421               
   103 r.107                -975.943      -989.673               
   104 r.108                 32.4591          -988               
   105 r.109                -975.943      -989.673               
   106 r.110                 32.4591          -988               
   107 r.111                    1001             2               
   108 r.112                   -1001         -1001               
   109 r.113                  2022.3      -978.109               
   110 r.114                    1001             2               
   111 r.115                   -1001         -1001               
   112 r.116                 2019.65      -990.175               
   113 r.117                 22.3044      -977.682               
   114 r.118                 -987.52      -990.171               
   115 r.119                 19.6535      -977.682               
   116 r.120                -990.171      -990.171               
   117 r.121                    1001             2               
   118 r.122                   -1001         -1001               
   119 r.123                 2006.95        9.5981               
   120 r.124                    1001             2               
   121 r.125                   -1001         -1001               
   122 r.126                 982.393       11.9833               
   123 r.127                    1001             2               
   124 r.128                   -1001         -1001               
   125 r.129                 1994.47       10.3275               
   126 r.130                    1001             2               
   127 r.131                   -1001         -1001               
   128 r.132                 2002.87       12.0003               
   129 r.133                 1020.69      -984.048               
   130 r.134                 20.6933      -983.303               
   131 r.135                 16.6972      -984.048               
   132 r.136                -983.303      -983.303               
   133 r.137                    1001             2               
   134 r.138                   -1001         -1001               
   135 r.139                 1978.38      -992.034               
   136 r.140                    1001             2               
   137 r.141                   -1001         -1001               
   138 r.142                 2005.74      -990.421               
   139 r.143                   29.59      -984.048               
   140 r.144                 -970.41      -983.303               
   141 r.145                   29.59      -984.048               
   142 r.146                 -970.41      -983.303               
   143 r.147                    1000             2               
   144 r.148                   -1000         -1001               
   145 r.149                 2019.65      -978.109               
   146 r.150                       2             2               
   147 r.151                      -2         -1001               
   148 r.152                -980.346      -990.175               
   149 r.153                 19.6535      -977.682               
   150 r.154                -990.171      -990.171               
   151 r.155                 19.6535      -977.682               
   152 r.156                -990.171      -990.171               
   153 r.157                    1001             2               
   154 r.158                   -1001         -1001               
   155 r.159                 3027.64        9.5981               
   156 r.160                    1001             2               
   157 r.161                   -1001         -1001               
   158 r.162                  999.09       11.9833               
   159 r.163                    1001             2               
   160 r.164                   -1001         -1001               
   161 r.165                 3015.16       10.3275               
   162 r.166                    1001             2               
   163 r.167                   -1001         -1001               
   164 r.168                 2019.57       12.0003               
   165 r.169                    1001             2               
   166 r.170                   -1001         -1001               
   167 r.171                 2999.07      -992.034               
   168 r.172                    1001             2               
   169 r.173                   -1001         -1001               
   170 r.174                 2022.44      -990.421               
   171 r.175                -991.103      -991.103               
   172 r.176                -987.107      -988.026               
   173 r.177                -991.103      -991.103               
   174 r.178                -987.107      -988.026               
   175 r.179                    1000             2               
   176 r.180                   -1000         -1001               
   177 r.181                 3040.35      -978.109               
   178 r.182                       2             2               
   179 r.183                      -2         -1001               
   180 r.184                -963.649      -990.175               
   181 r.185                 1040.35      -977.682               
   182 r.186                 30.5222      -990.171               
   183 r.187                 36.3507      -977.682               
   184 r.188                -973.474      -990.171               
   185 r.189                       2             2               
   186 r.190                      -2         -1001               
   187 r.191                 22.8073        9.5981               
   188 r.192                    1000             2               
   189 r.193                   -1000         -1001               
   190 r.194                 982.393       11.9833               
   191 r.195                       2             2               
   192 r.196                      -2         -1001               
   193 r.197                 10.3275       10.3275               
   194 r.198                    1000             2               
   195 r.199                   -1000         -1001               
   196 r.200                 2002.87       12.0003               
   197 r.201                    1001             2               
   198 r.202                   -1001         -1001               
   199 r.203                 2015.86       15.9516               
   200 r.204                    1001             2               
   201 r.205                   -1001         -1001               
   202 r.206                    2000       16.6972               
   203 r.207                    1001             2               
   204 r.208                   -1001         -1001               
   205 r.209                 995.167        8.8967               
   206 r.210                    1001             2               
   207 r.211                   -1001         -1001               
   208 r.212                  1983.3       11.9737               
   209 r.213                -992.034      -992.034               
   210 r.214                 35.3282      -990.421               
   211 r.215                -992.034      -992.034               
   212 r.216                 35.3282      -990.421               
   213 r.217                 35.5137      -978.109               
   214 r.218                -964.486      -990.175               
   215 r.219                 19.6535      -978.109               
   216 r.220                -980.347      -990.175               
   217 r.221                 35.5137      -977.682               
   218 r.222                -974.311      -990.171               
   219 r.223                 19.6535      -977.682               
   220 r.224                -990.171      -990.171               
   221 r.225                    1001             2               
   222 r.226                   -1001         -1001               
   223 r.227                 1974.81       10.3275               
   224 r.228                    1001             2               
   225 r.229                   -1001         -1001               
   226 r.230                 1983.22       12.0003               
   227 r.231                    1000             2               
   228 r.232                   -1000         -1001               
   229 r.233                 1980.35       15.9516               
   230 r.234                       2             2               
   231 r.235                      -2         -1001               
   232 r.236                 980.346       16.6972               
   233 r.237                    1000             2               
   234 r.238                   -1000         -1001               
   235 r.239                 959.653        8.8967               
   236 r.240                       2             2               
   237 r.241                      -2         -1001               
   238 r.242                 963.649       11.9737               
   239 r.243                    1000             2               
   240 r.244                   -1000         -1001               
   241 r.245                    2000      -977.682               
   242 r.246                       2             2               
   243 r.247                      -2         -1001               
   244 r.248                 -9.8246      -990.171               
   245 r.249                    1001             2               
   246 r.250                   -1001         -1001               
   247 r.251                 1987.29        9.5981               
   248 r.252                    1001             2               
   249 r.253                   -1001         -1001               
   250 r.254                 972.564       11.9833               
   251 r.255                    1000             2               
   252 r.256                   -1000         -1001               
   253 r.257                    2000       21.8914               
   254 r.258                       2             2               
   255 r.259                      -2         -1001               
   256 r.260                  9.8246        9.8246               

   No. Column name       Activity     Lower bound   Upper bound
------ ------------    ------------- ------------- -------------
     1 tt                    56.3311             0               
     2 s_1_1        *              1             0             1 
     3 t_1_1                  9.8246             0               
     4 s_1_7        *              0             0             1 
     5 s_2_1        *              0             0             1 
     6 t_2_1                 1040.13             0               
     7 s_2_7        *              1             0             1 
     8 s_1_2        *              1             0             1 
     9 t_1_2                 22.3044             0               
    10 s_1_8        *              0             0             1 
    11 s_2_2        *              0             0             1 
    12 t_2_2                 19.6535             0               
    13 s_2_8        *              1             0             1 
    14 s_1_3        *              0             0             1 
    15 t_1_3                 19.6535             0               
    16 s_2_3        *              1             0             1 
    17 t_2_3                 19.6535             0               
    18 s_1_4        *              0             0             1 
    19 t_1_4                 1040.35             0               
    20 s_2_4        *              1             0             1 
    21 t_2_4                 36.3507             0               
    22 s_1_5        *              1             0             1 
    23 t_1_5                 35.5137             0               
    24 s_2_5        *              0             0             1 
    25 t_2_5                 19.6535             0               
    26 s_1_6        *              1             0             1 
    27 t_1_6                 49.2435             0               
    28 s_2_6        *              0             0             1 
    29 t_2_6                 49.2435             0               
    30 t_1_7                       0             0               
    31 t_2_7                       0             0               
    32 t_1_8                       0             0               
    33 t_2_8                  9.8246             0               
    34 r_1_1_2      *              0             0             1 
    35 u_1_1_2      *              0             0             1 
    36 r_2_1_2      *              1             0             1 
    37 u_2_1_2      *              0             0             1 
    38 r_1_1_3      *              1             0             1 
    39 u_1_1_3      *              0             0             1 
    40 r_2_1_3      *              1             0             1 
    41 u_2_1_3      *              0             0             1 
    42 r_1_1_4      *              1             0             1 
    43 u_1_1_4      *              0             0             1 
    44 r_2_1_4      *              1             0             1 
    45 u_2_1_4      *              0             0             1 
    46 r_1_1_5      *              0             0             1 
    47 u_1_1_5      *              0             0             1 
    48 r_2_1_5      *              1             0             1 
    49 u_2_1_5      *              0             0             1 
    50 r_1_1_8      *              1             0             1 
    51 u_1_1_8      *              0             0             1 
    52 r_2_1_8      *              1             0             1 
    53 u_2_1_8      *              0             0             1 
    54 r_1_2_3      *              1             0             1 
    55 u_1_2_3      *              0             0             1 
    56 r_2_2_3      *              1             0             1 
    57 u_2_2_3      *              0             0             1 
    58 r_1_2_4      *              1             0             1 
    59 u_1_2_4      *              0             0             1 
    60 r_2_2_4      *              1             0             1 
    61 u_2_2_4      *              0             0             1 
    62 r_1_2_5      *              0             0             1 
    63 u_1_2_5      *              0             0             1 
    64 r_2_2_5      *              1             0             1 
    65 u_2_2_5      *              0             0             1 
    66 r_1_2_7      *              1             0             1 
    67 u_1_2_7      *              0             0             1 
    68 r_2_2_7      *              1             0             1 
    69 u_2_2_7      *              0             0             1 
    70 r_1_3_5      *              1             0             1 
    71 u_1_3_5      *              0             0             1 
    72 r_2_3_5      *              1             0             1 
    73 u_2_3_5      *              0             0             1 
    74 r_1_3_7      *              1             0             1 
    75 u_1_3_7      *              0             0             1 
    76 r_2_3_7      *              0             0             1 
    77 u_2_3_7      *              1             0             1 
    78 r_1_4_5      *              1             0             1 
    79 u_1_4_5      *              0             0             1 
    80 r_2_4_5      *              1             0             1 
    81 u_2_4_5      *              0             0             1 
    82 r_1_4_7      *              1             0             1 
    83 u_1_4_7      *              0             0             1 
    84 r_2_4_7      *              0             0             1 
    85 u_2_4_7      *              1             0             1 
    86 r_1_7_8      *              1             0             1 
    87 u_1_7_8      *              0             0             1 
    88 r_2_7_8      *              0             0             1 
    89 u_2_7_8      *              0             0             1 

Integer feasibility conditions:

KKT.PE: max.abs.err = 4.55e-13 on row 22
        max.rel.err = 2.14e-16 on row 22
        High quality

KKT.PB: max.abs.err = 1.14e-13 on row 66
        max.rel.err = 1.15e-16 on row 66
        High quality

End of output
